
Gurobi 9.5.1 (linux64) logging started Fri 15 Jul 2022 10:13:40 AM MST

Set parameter LogFile to value "/home/local/ASUAD/kmajd1/NNRepLayer_v2/demos/walking_example/dynamic_constraint/repair_net/logs/opt_log_7_15_2022_10_12_37.log"
Gurobi Optimizer version 9.5.1 build v9.5.1rc2 (linux64)
Thread count: 48 physical cores, 96 logical processors, using up to 32 threads
Optimize a model with 55914 rows, 38094 columns and 1536618 nonzeros
Model fingerprint: 0xe62f523e
Model has 270 quadratic objective terms
Variable types: 20814 continuous, 17280 integer (17280 binary)
Coefficient statistics:
  Matrix range     [3e-04, 8e+02]
  Objective range  [9e-03, 1e+00]
  QObjective range [7e-02, 7e-02]
  Bounds range     [4e-01, 3e+03]
  RHS range        [1e-05, 8e+02]
Presolve removed 540 rows and 0 columns
Presolve time: 3.37s
Presolved: 55374 rows, 38094 columns, 1536078 nonzeros
Presolved model has 270 quadratic objective terms
Variable types: 20814 continuous, 17280 integer (17280 binary)
Root relaxation presolve removed 17280 rows and 17280 columns
Root relaxation presolved: 38094 rows, 20814 columns, 1484238 nonzeros
Root relaxation presolved model has 270 quadratic objective terms


Root simplex log...

Iteration    Objective       Primal Inf.    Dual Inf.      Time
       0    2.8273109e+01   0.000000e+00   0.000000e+00      6s
   32726    2.8273109e+01   4.542383e+01   0.000000e+00     10s
   35805    2.8273109e+01   0.000000e+00   0.000000e+00     11s
   35805    2.8273109e+01   0.000000e+00   0.000000e+00     11s

Root relaxation: objective 2.827311e+01, 35805 iterations, 6.60 seconds (38.12 work units)

    Nodes    |    Current Node    |     Objective Bounds      |     Work
 Expl Unexpl |  Obj  Depth IntInf | Incumbent    BestBd   Gap | It/Node Time

     0     0   28.27311    0 5031          -   28.27311      -     -   12s
     0     0   28.27311    0 4892          -   28.27311      -     -   19s
     0     0   28.27311    0 4705          -   28.27311      -     -   27s
     0     0   28.27311    0 4688          -   28.27311      -     -   37s
     0     0   28.27311    0 4751          -   28.27311      -     -   46s
     0     0   28.27311    0 4636          -   28.27311      -     -   58s
     0     0          -    0               -   28.27311      -     -   67s

Cutting planes:
  Gomory: 313
  Cover: 167
  Projected implied bound: 190
  MIR: 1360
  Flow cover: 903
  Zero half: 2

Explored 1 nodes (241804 simplex iterations) in 67.17 seconds (189.84 work units)
Thread count was 32 (of 96 available processors)

Solution count 0

Solve interrupted
Best objective -, best bound 2.827310893873e+01, gap -
